# Solution for model GasLib-40
# Objective value = 3.8401858414309793e+01
loadshed[innode_1] 0
loadshed[innode_2] 0
loadshed[innode_3] 0
loadshed[innode_4] 0
loadshed[innode_5] 0
loadshed[innode_6] 0
loadshed[innode_7] 0
loadshed[innode_8] 0
loadshed[source_1] -2.0774980400475518e-01
loadshed[source_2] 1.1731606086389812e-01
loadshed[source_3] 3.3334468588880906e-01
loadshed[sink_1] 0
loadshed[sink_2] 0
loadshed[sink_3] 0
loadshed[sink_4] 0
loadshed[sink_5] 0
loadshed[sink_6] 0
loadshed[sink_7] 0
loadshed[sink_8] 0
loadshed[sink_9] 0
loadshed[sink_10] 0
loadshed[sink_11] 0
loadshed[sink_12] 1
loadshed[sink_13] 0
loadshed[sink_14] 0
loadshed[sink_15] 0
loadshed[sink_16] 0
loadshed[sink_17] 0
loadshed[sink_18] 0
loadshed[sink_19] 0
loadshed[sink_20] 0
loadshed[sink_21] 1
loadshed[sink_22] 0
loadshed[sink_23] 0
loadshed[sink_24] 3.4813911323168140e-01
loadshed[sink_25] 0
loadshed[sink_26] 0
loadshed[sink_27] 0
loadshed[sink_28] 0
loadshed[sink_29] 0
flow[source_1,sink_3] 1.9093350200116839e+02
flow[innode_1,sink_16] 1.6354166666666970e+01
flow[innode_6,sink_13] 9.0874428767971516e+00
flow[sink_13,sink_14] -7.2667237898695163e+00
flow[sink_14,sink_10] -2.3620890456536245e+01
flow[sink_25,sink_26] 1.3007098329849964e+02
flow[sink_26,sink_9] 3.2708333333334551e+01
flow[sink_9,sink_18] 1.6354166666667879e+01
flow[sink_26,sink_4] 8.1008483298498419e+01
flow[sink_4,sink_20] -1.5567601147229844e+01
flow[sink_18,sink_6] 0
flow[sink_25,innode_8] -1.5822516866783204e+02
flow[sink_6,sink_7] -4.9062500000000313e+01
flow[sink_6,sink_22] 3.2708333333333641e+01
flow[sink_7,sink_24] 1.0660641585690209e+01
flow[sink_22,sink_1] 1.6354166666666970e+01
flow[sink_24,sink_21] 0
flow[sink_21,sink_12] 0
flow[sink_7,sink_5] -7.6077308252357184e+01
flow[sink_5,sink_17] -9.2431474919023856e+01
flow[sink_17,sink_4] -8.0221917779061584e+01
flow[sink_17,sink_8] -2.8563723806628932e+01
flow[sink_3,sink_23] 16.3541666666697
flow[sink_8,sink_20] -44.9178904732956
flow[sink_25,sink_20] 7.6839658287192037e+01
flow[sink_25,sink_15] -7.4127082461324179e+01
flow[sink_15,sink_29] -9.0481249127990850e+01
flow[sink_29,sink_28] 1.6354166666667879e+01
flow[sink_29,sink_2] 1.6354166666684250e+01
flow[sink_2,sink_15] 0
flow[sink_29,innode_7] -1.3954374912800944e+02
flow[innode_4,sink_19] 4.0281290595062060e+01
flow[sink_19,innode_3] 7.2683390456536671e+01
flow[innode_4,innode_5] 6.5110433194807811e+01
flow[sink_27,innode_5] -6.5110433194807811e+01
flow[sink_27,sink_19] 4.8756266528141140e+01
flow[sink_10,sink_11] 3.2708333333333641e+01
flow[sink_10,innode_2] 0
flow[sink_10,innode_3] -7.2683390456536671e+01
flow[innode_6,sink_25] -9.0874428767971516e+00
flow[sink_11,innode_1] 1.6354166666666970e+01
flow[sink_19,innode_2] 0
flow[source_3,innode_4] 1.0539172378986987e+02
flow[source_2,innode_7] 1.3954374912800944e+02
flow[sink_3,innode_8] 1.5822516866783204e+02
pressure[innode_1] 7.5199033501456810e+01
pressure[innode_2] 7.9381352280680616e+01
pressure[innode_3] 7.9220403143015716e+01
pressure[innode_4] 81.01325
pressure[innode_5] 8.0968463610764829e+01
pressure[innode_6] 7.4270592990362061e+01
pressure[innode_7] 81.01325
pressure[innode_8] 8.0375032242051617e+01
pressure[source_1] 81.01325
pressure[source_2] 81.01325
pressure[source_3] 81.01325
pressure[sink_1] 1.0444301490906696e+01
pressure[sink_2] 7.6866731874371240e+01
pressure[sink_3] 8.0375032242051617e+01
pressure[sink_4] 5.4810141797215728e+01
pressure[sink_5] 4.4858847855720228e+01
pressure[sink_6] 1.2545379101294069e+01
pressure[sink_7] 13.2188902789942
pressure[sink_8] 5.2822108129250864e+01
pressure[sink_9] 6.3152091855216547e+01
pressure[sink_10] 7.5350734809060356e+01
pressure[sink_11] 7.5199033501456810e+01
pressure[sink_12] 1.01325
pressure[sink_13] 7.4220495436435058e+01
pressure[sink_14] 7.4233499857645029e+01
pressure[sink_15] 7.4630181571347165e+01
pressure[sink_16] 7.4177383666639130e+01
pressure[sink_17] 5.1744324623297082e+01
pressure[sink_18] 6.2560349361416840e+01
pressure[sink_19] 7.9381352280680616e+01
pressure[sink_20] 5.5952253402771227e+01
pressure[sink_21] 1.01325
pressure[sink_22] 1.1508070633261706e+01
pressure[sink_23] 8.0210314230391830e+01
pressure[sink_24] 1.01325
pressure[sink_25] 7.4270592990362061e+01
pressure[sink_26] 6.5109770023101149e+01
pressure[sink_27] 8.0428167326392128e+01
pressure[sink_28] 7.6985719099217718e+01
pressure[sink_29] 77.2810013728349
interdiction[source_1,sink_3] 0
interdiction[innode_1,sink_16] 0
interdiction[innode_6,sink_13] 0
interdiction[sink_13,sink_14] 0
interdiction[sink_14,sink_10] 0
interdiction[sink_25,sink_26] 0
interdiction[sink_26,sink_9] 0
interdiction[sink_9,sink_18] 0
interdiction[sink_26,sink_4] 0
interdiction[sink_4,sink_20] 0
interdiction[sink_18,sink_6] 1
interdiction[sink_25,innode_8] 0
interdiction[sink_6,sink_7] 0
interdiction[sink_6,sink_22] 0
interdiction[sink_7,sink_24] 0
interdiction[sink_22,sink_1] 0
interdiction[sink_24,sink_21] 0
interdiction[sink_21,sink_12] 0
interdiction[sink_7,sink_5] 0
interdiction[sink_5,sink_17] 0
interdiction[sink_17,sink_4] 0
interdiction[sink_17,sink_8] 0
interdiction[sink_3,sink_23] 0
interdiction[sink_8,sink_20] 0
interdiction[sink_25,sink_20] 0
interdiction[sink_25,sink_15] 0
interdiction[sink_15,sink_29] 0
interdiction[sink_29,sink_28] 0
interdiction[sink_29,sink_2] 0
interdiction[sink_2,sink_15] 1
interdiction[sink_29,innode_7] 0
interdiction[innode_4,sink_19] 0
interdiction[sink_19,innode_3] 0
interdiction[innode_4,innode_5] 0
interdiction[sink_27,innode_5] 0
interdiction[sink_27,sink_19] 0
interdiction[sink_10,sink_11] 0
interdiction[sink_10,innode_2] 1
interdiction[sink_10,innode_3] 0
interdiction[innode_6,sink_25] 0
interdiction[sink_11,innode_1] 0
interdiction[sink_19,innode_2] 0
interdiction[source_3,innode_4] 0
interdiction[source_2,innode_7] 0
interdiction[sink_3,innode_8] 0
WCcheckFlow[source_1,sink_3] 39
WCcheckFlow[innode_1,sink_16] 1
WCcheckFlow[innode_6,sink_13] 13
WCcheckFlow[sink_13,sink_14] 12
WCcheckFlow[sink_14,sink_10] 11
WCcheckFlow[sink_25,sink_26] 15
WCcheckFlow[sink_26,sink_9] 2
WCcheckFlow[sink_9,sink_18] 1
WCcheckFlow[sink_26,sink_4] 12
WCcheckFlow[sink_4,sink_20] 1
WCcheckFlow[sink_18,sink_6] 0
WCcheckFlow[sink_25,innode_8] -36
WCcheckFlow[sink_6,sink_7] -3
WCcheckFlow[sink_6,sink_22] 2
WCcheckFlow[sink_7,sink_24] 3
WCcheckFlow[sink_22,sink_1] 1
WCcheckFlow[sink_24,sink_21] 2
WCcheckFlow[sink_21,sink_12] 1
WCcheckFlow[sink_7,sink_5] -7
WCcheckFlow[sink_5,sink_17] -8
WCcheckFlow[sink_17,sink_4] -10
WCcheckFlow[sink_17,sink_8] 1
WCcheckFlow[sink_3,sink_23] 1
WCcheckFlow[sink_8,sink_20] 0
WCcheckFlow[sink_25,sink_20] 0
WCcheckFlow[sink_25,sink_15] 6
WCcheckFlow[sink_15,sink_29] 5
WCcheckFlow[sink_29,sink_28] 1
WCcheckFlow[sink_29,sink_2] 1
WCcheckFlow[sink_2,sink_15] 0
WCcheckFlow[sink_29,innode_7] 2
WCcheckFlow[innode_4,sink_19] -4
WCcheckFlow[sink_19,innode_3] -6
WCcheckFlow[innode_4,innode_5] 2
WCcheckFlow[sink_27,innode_5] -1
WCcheckFlow[sink_27,sink_19] 0
WCcheckFlow[sink_10,sink_11] 3
WCcheckFlow[sink_10,innode_2] 0
WCcheckFlow[sink_10,innode_3] 7
WCcheckFlow[innode_6,sink_25] -14
WCcheckFlow[sink_11,innode_1] 2
WCcheckFlow[sink_19,innode_2] 1
WCcheckFlow[source_3,innode_4] -1
WCcheckFlow[source_2,innode_7] -1
WCcheckFlow[sink_3,innode_8] 37
